(set-info :source |printed by MathSAT|)
(declare-fun |!{$(in_main#0)<SIZE>}| () Int)
(declare-fun |!{$(in_main#0)<SIZE>}.next| () Int)
(declare-fun |!{$(in_main#0)<i>}| () Int)
(declare-fun |!{$(in_main#0)<i>}.next| () Int)
(declare-fun |!{$(in_main#0)<j>}| () Int)
(declare-fun |!{$(in_main#0)<j>}.next| () Int)
(declare-fun |!{$(in_main#0)<k>}| () Int)
(declare-fun |!{$(in_main#0)<k>}.next| () Int)
(declare-fun |!{$(in_main#0)<a.1>}| () (Array Int Int))
(declare-fun |!{$(in_main#0)<a.1>}.next| () (Array Int Int))
(declare-fun |!{$(in_main#0)<$(in___VERIFIER_nondet_int#0)<h#<__VERIFIER_nondet_int.return>>>}| () Int)
(declare-fun !pc () Int)
(declare-fun !pc.next () Int)
(declare-fun |%{$(in_main#0)<j>}#1| () Int)
(declare-fun |%{$(in_main#0)<k>}#1| () Int)
(declare-fun |%{$(in_main#0)<a.1>}#1| () (Array Int Int))
(define-fun .def_28 () Int (! !pc :next !pc.next))
(define-fun .def_31 () Bool (! (= .def_28 2) :init true))
(define-fun .def_162 () Bool (= .def_28 37))
(define-fun .def_137 () Bool (= !pc.next 50))
(define-fun .def_165 () Bool (and .def_137 .def_162))
(define-fun .def_157 () Bool (= |!{$(in_main#0)<j>}.next| 0))
(define-fun .def_10 () Int (! |!{$(in_main#0)<i>}| :next |!{$(in_main#0)<i>}.next|))
(define-fun .def_78 () Bool (= .def_10 |!{$(in_main#0)<i>}.next|))
(define-fun .def_8 () Int (! |!{$(in_main#0)<SIZE>}| :next |!{$(in_main#0)<SIZE>}.next|))
(define-fun .def_76 () Bool (= .def_8 |!{$(in_main#0)<SIZE>}.next|))
(define-fun .def_87 () Bool (and .def_76 .def_78))
(define-fun .def_158 () Bool (and .def_87 .def_157))
(define-fun .def_14 () Int (! |!{$(in_main#0)<k>}| :next |!{$(in_main#0)<k>}.next|))
(define-fun .def_82 () Bool (= .def_14 |!{$(in_main#0)<k>}.next|))
(define-fun .def_159 () Bool (and .def_82 .def_158))
(define-fun .def_16 () (Array Int Int) (! |!{$(in_main#0)<a.1>}| :next |!{$(in_main#0)<a.1>}.next|))
(define-fun .def_84 () Bool (= .def_16 |!{$(in_main#0)<a.1>}.next|))
(define-fun .def_160 () Bool (and .def_84 .def_159))
(define-fun .def_144 () Bool (<= .def_8 .def_10))
(define-fun .def_161 () Bool (and .def_144 .def_160))
(define-fun .def_166 () Bool (and .def_161 .def_165))
(define-fun .def_59 () Bool (= !pc.next 37))
(define-fun .def_163 () Bool (and .def_59 .def_162))
(define-fun .def_146 () (Array Int Int) (store .def_16 .def_10 0))
(define-fun .def_154 () Bool (= |!{$(in_main#0)<a.1>}.next| .def_146))
(define-fun .def_148 () Int (* (- 1) |!{$(in_main#0)<i>}.next|))
(define-fun .def_149 () Int (+ .def_10 .def_148))
(define-fun .def_150 () Bool (= .def_149 (- 1)))
(define-fun .def_151 () Bool (and .def_76 .def_150))
(define-fun .def_12 () Int (! |!{$(in_main#0)<j>}| :next |!{$(in_main#0)<j>}.next|))
(define-fun .def_80 () Bool (= .def_12 |!{$(in_main#0)<j>}.next|))
(define-fun .def_152 () Bool (and .def_80 .def_151))
(define-fun .def_153 () Bool (and .def_82 .def_152))
(define-fun .def_155 () Bool (and .def_153 .def_154))
(define-fun .def_145 () Bool (not .def_144))
(define-fun .def_156 () Bool (and .def_145 .def_155))
(define-fun .def_164 () Bool (and .def_156 .def_163))
(define-fun .def_167 () Bool (or .def_164 .def_166))
(define-fun .def_136 () Bool (= .def_28 50))
(define-fun .def_108 () Bool (= !pc.next 63))
(define-fun .def_140 () Bool (and .def_108 .def_136))
(define-fun .def_131 () Bool (= |!{$(in_main#0)<k>}.next| 0))
(define-fun .def_88 () Bool (and .def_80 .def_87))
(define-fun .def_132 () Bool (and .def_88 .def_131))
(define-fun .def_133 () Bool (and .def_84 .def_132))
(define-fun .def_63 () Real (* (/ 1 2) (to_real .def_8)))
(define-fun .def_64 () Int (to_int .def_63))
(define-fun .def_119 () Bool (<= .def_64 .def_12))
(define-fun .def_134 () Bool (and .def_119 .def_133))
(define-fun .def_141 () Bool (and .def_134 .def_140))
(define-fun .def_138 () Bool (and .def_136 .def_137))
(define-fun .def_121 () (Array Int Int) (store .def_16 .def_12 10))
(define-fun .def_128 () Bool (= |!{$(in_main#0)<a.1>}.next| .def_121))
(define-fun .def_123 () Int (* (- 1) |!{$(in_main#0)<j>}.next|))
(define-fun .def_124 () Int (+ .def_12 .def_123))
(define-fun .def_125 () Bool (= .def_124 (- 1)))
(define-fun .def_126 () Bool (and .def_87 .def_125))
(define-fun .def_127 () Bool (and .def_82 .def_126))
(define-fun .def_129 () Bool (and .def_127 .def_128))
(define-fun .def_120 () Bool (not .def_119))
(define-fun .def_130 () Bool (and .def_120 .def_129))
(define-fun .def_139 () Bool (and .def_130 .def_138))
(define-fun .def_142 () Bool (or .def_139 .def_141))
(define-fun .def_112 () Bool (= !pc.next 0))
(define-fun .def_103 () Bool (= .def_28 63))
(define-fun .def_113 () Bool (and .def_103 .def_112))
(define-fun .def_65 () Bool (<= .def_64 .def_14))
(define-fun .def_97 () Bool (and .def_65 .def_76))
(define-fun .def_98 () Bool (and .def_78 .def_97))
(define-fun .def_99 () Bool (and .def_80 .def_98))
(define-fun .def_100 () Bool (and .def_82 .def_99))
(define-fun .def_101 () Bool (and .def_84 .def_100))
(define-fun .def_114 () Bool (and .def_101 .def_113))
(define-fun .def_109 () Bool (and .def_103 .def_108))
(define-fun .def_90 () Int (* (- 1) |!{$(in_main#0)<k>}.next|))
(define-fun .def_91 () Int (+ .def_14 .def_90))
(define-fun .def_92 () Bool (= .def_91 (- 1)))
(define-fun .def_93 () Bool (and .def_88 .def_92))
(define-fun .def_94 () Bool (and .def_84 .def_93))
(define-fun .def_67 () Int (select .def_16 .def_14))
(define-fun .def_69 () Bool (= .def_67 10))
(define-fun .def_70 () Int (ite .def_69 1 0))
(define-fun .def_71 () Bool (= .def_70 0))
(define-fun .def_72 () Bool (not .def_71))
(define-fun .def_95 () Bool (and .def_72 .def_94))
(define-fun .def_66 () Bool (not .def_65))
(define-fun .def_96 () Bool (and .def_66 .def_95))
(define-fun .def_110 () Bool (and .def_96 .def_109))
(define-fun .def_105 () Bool (= !pc.next 83))
(define-fun .def_106 () Bool (and .def_103 .def_105))
(define-fun .def_77 () Bool (and .def_71 .def_76))
(define-fun .def_79 () Bool (and .def_77 .def_78))
(define-fun .def_81 () Bool (and .def_79 .def_80))
(define-fun .def_83 () Bool (and .def_81 .def_82))
(define-fun .def_85 () Bool (and .def_83 .def_84))
(define-fun .def_86 () Bool (and .def_66 .def_85))
(define-fun .def_107 () Bool (and .def_86 .def_106))
(define-fun .def_111 () Bool (or .def_107 .def_110))
(define-fun .def_115 () Bool (or .def_111 .def_114))
(define-fun .def_60 () Bool (and .def_31 .def_59))
(define-fun .def_55 () Bool (= |!{$(in_main#0)<a.1>}.next| |%{$(in_main#0)<a.1>}#1|))
(define-fun .def_53 () Bool (= |!{$(in_main#0)<k>}.next| |%{$(in_main#0)<k>}#1|))
(define-fun .def_51 () Bool (= |!{$(in_main#0)<j>}.next| |%{$(in_main#0)<j>}#1|))
(define-fun .def_49 () Bool (= |!{$(in_main#0)<i>}.next| 0))
(define-fun .def_48 () Bool (= |!{$(in_main#0)<SIZE>}.next| |!{$(in_main#0)<$(in___VERIFIER_nondet_int#0)<h#<__VERIFIER_nondet_int.return>>>}|))
(define-fun .def_50 () Bool (and .def_48 .def_49))
(define-fun .def_52 () Bool (and .def_50 .def_51))
(define-fun .def_54 () Bool (and .def_52 .def_53))
(define-fun .def_56 () Bool (and .def_54 .def_55))
(define-fun .def_43 () Bool (<= |!{$(in_main#0)<$(in___VERIFIER_nondet_int#0)<h#<__VERIFIER_nondet_int.return>>>}| 0))
(define-fun .def_44 () Bool (not .def_43))
(define-fun .def_45 () Int (ite .def_44 1 0))
(define-fun .def_46 () Bool (= .def_45 0))
(define-fun .def_47 () Bool (not .def_46))
(define-fun .def_57 () Bool (and .def_47 .def_56))
(define-fun .def_61 () Bool (and .def_57 .def_60))
(define-fun .def_116 () Bool (or .def_61 .def_115))
(define-fun .def_143 () Bool (or .def_116 .def_142))
(define-fun .def_168 () Bool (! (or .def_143 .def_167) :trans true))
(define-fun .def_117 () Bool (= .def_28 83))
(define-fun .def_169 () Bool (! (not .def_117) :invar-property 0 :invar-property-name ||))
(assert true)
